p td 80 80
0 12
0 49
0 32
0 57
0 50
1 77
1 6
2 25
2 57
2 26
3 26
3 41
7 46
9 75
9 76
9 54
10 71
11 25
13 47
14 52
14 70
18 35
19 31
20 48
20 28
21 58
22 58
22 39
22 60
23 72
24 57
24 46
24 48
24 49
28 36
28 35
29 78
29 47
29 70
29 51
30 78
30 75
31 35
31 71
31 50
31 57
32 75
33 71
33 74
34 53
34 79
35 60
35 74
35 39
36 43
40 73
41 74
42 50
43 66
43 71
43 51
44 59
45 65
47 61
48 74
49 79
50 51
51 59
51 79
51 53
52 60
52 57
55 66
55 72
56 68
60 70
62 65
64 67
67 71
75 79
